120
150
47
57
59
44
58
44
50
51
49
48
47
46
46
51
53
47
43
60
54
43
53
48
56
49
55
57
44
60
41
59
43
57
46
49
49
48
47
48
56
60
60
57
53
53
48
50
54
49
46
48
53
49
46
46
51
50
49
46
40
51
55
47
51
52
44
42
60
57
50
48
49
52
54
40
60
41
56
47
57
50
60
42
49
49
53
48
60
42
47
48
43
57
50
47
51
52
43
60
42
48
46
60
55
46
57
42
52
41
57
57
46
51
49
47
44
43
60
51
60
60
